n_machines = 10;
n_resources = 15;
n_jobs = 78;
horizon = 38467;
LB = 6021;
n_jobs_per_resource = [3, 2, 9, 4, 6, 5, 8, 9, 6, 4, 3, 5, 7, 6, 1];
duration = [827, 26, 655, 533, 231, 358, 607, 954, 946, 40, 754, 991, 981, 390, 683, 249, 99, 246, 154, 808, 299, 830, 305, 828, 763, 745, 117, 438, 119, 57, 770, 584, 305, 468, 328, 994, 691, 557, 745, 778, 232, 87, 420, 79, 704, 128, 604, 314, 98, 808, 385, 986, 572, 324, 520, 235, 414, 931, 958, 114, 20, 645, 40, 303, 730, 251, 582, 54, 26, 247, 125, 692, 328, 961, 972, 724, 791, 810]